NAME: ACTUAL_TOURS/amz2118
TYPE: TOUR
COMMENT: RouteID_e0c67870-43e9-466a-8f1c-7ff42d2f135d
DIMENSION: 178
TOUR_SECTION
88
174
72
85
141
87
20
175
29
58
44
24
31
51
129
143
75
60
76
40
149
102
34
150
165
62
95
123
154
7
160
155
77
108
74
112
152
71
80
11
83
140
56
2
126
176
110
10
158
1
170
5
17
111
89
18
118
147
128
117
30
53
136
134
153
91
50
163
54
173
96
25
48
168
26
22
67
39
43
94
65
116
93
145
162
161
63
99
69
164
13
113
78
70
4
32
98
19
142
120
131
27
61
45
127
101
55
159
14
135
6
35
68
49
41
57
38
23
166
172
109
15
90
9
16
66
28
33
103
59
64
21
119
146
151
157
12
8
171
52
137
144
169
121
81
36
132
100
46
105
177
115
79
106
125
178
92
167
47
82
104
37
133
124
107
97
42
3
148
122
138
130
156
86
114
84
73
139
-1
EOF
